Minimize
  + 52224.87456518626 Constant
Subject To
 R13: (can1_init_target-value-(1,_0)) = 0.5
 R16: (pr2-pose-(1,_0)) = -9.500201225280762
 R36: (can1_init_target-value-(1,_0)) - (pr2-pose-(1,_0)) <= 10
Bounds
 (can1_init_target-value-(1,_0)) free
 (pr2-pose-(1,_0)) free
 Constant = 1
End
